examples/tsp16-5_20210614_221321.tsp
NAME: tsp16-5_20210614_221321
TYPE: TSP
COMMENT: Generated by GitHub user:GunterSchmidt
DIMENSION: 16
EDGE_WEIGHT_TYPE: EUC_2D
NODE_COORD_SECTION
   1  97.95  97.8
   2  101.55  96.89
   3  90.93  88.77
   4  86.19  70.71
   5  61.69  54.89
   6  68.18  52.9
   7  74.74  46.16
   8  88.45  26.76
   9  104.68  13.04
  10  61.22  14.68
  11  49.9  49.11
  12  50.44  50.55
  13  35.01  59.52
  14  0.42  80.52
  15  39.16  83.1
  16  54.49  81.8
EOF
