examples/tsp16-5_20210614_221321.opt.tour
NAME : tsp16-5_20210614_221321 (Opt)
COMMENT : Length 366.22645, Brute-force solved by GitHub user:GunterSchmidt
TYPE : TOUR
DIMENSION : 16
TOUR_SECTION
   1
   2
   3
   4
   5
   6
   7
   8
   9
  10
  11
  12
  13
  14
  15
  16
EOF
